(set-info :smt-lib-version 2.6)
(set-info :category "crafted")
(set-logic QF_FFA)
(define-sort FF0 () (_ FiniteField 52435875175126190479447740508185965837690552500527637822603658699938581184513))
(declare-fun out_alt () FF0)
(declare-fun _10_alt () FF0)
(declare-fun _3_alt () FF0)
(declare-fun _9_alt () FF0)
(declare-fun _1_alt () FF0)
(declare-fun _8_alt () FF0)
(declare-fun _7_alt () FF0)
(declare-fun _0_alt () FF0)
(declare-fun _6_alt () FF0)
(declare-fun _4_alt () FF0)
(declare-fun _5_alt () FF0)
(declare-fun _2_alt () FF0)
(declare-fun out () FF0)
(declare-fun _10 () FF0)
(declare-fun _3 () FF0)
(declare-fun _9 () FF0)
(declare-fun _1 () FF0)
(declare-fun _8 () FF0)
(declare-fun _7 () FF0)
(declare-fun _0 () FF0)
(declare-fun _6 () FF0)
(declare-fun _4 () FF0)
(declare-fun _5 () FF0)
(declare-fun _2 () FF0)
(assert 
  (let ((let0 out_alt))
  (let ((let1 (as ff1 FF0)))
  (let ((let2 (as ff52435875175126190479447740508185965837690552500527637822603658699938581184512 FF0)))
  (let ((let3 _10_alt))
  (let ((let4 (ff.mul let3 let2)))
  (let ((let5 (ff.add let4 let1)))
  (let ((let6 (= let5 let0)))
  (let ((let7 _3_alt))
  (let ((let8 _9_alt))
  (let ((let9 (ff.mul let8 let7)))
  (let ((let10 (= let9 let3)))
  (let ((let11 _1_alt))
  (let ((let12 _8_alt))
  (let ((let13 (ff.mul let12 let11)))
  (let ((let14 (= let13 let8)))
  (let ((let15 _7_alt))
  (let ((let16 (ff.mul let15 let7)))
  (let ((let17 (= let16 let12)))
  (let ((let18 _0_alt))
  (let ((let19 _6_alt))
  (let ((let20 (ff.mul let19 let18)))
  (let ((let21 (= let20 let15)))
  (let ((let22 _4_alt))
  (let ((let23 _5_alt))
  (let ((let24 (ff.mul let23 let22)))
  (let ((let25 (= let24 let19)))
  (let ((let26 _2_alt))
  (let ((let27 (ff.mul let11 let26)))
  (let ((let28 (= let27 let23)))
  (let ((let29 (ff.mul let22 let2)))
  (let ((let30 (ff.mul let26 let2)))
  (let ((let31 (ff.add let18 let30 let29 let1)))
  (let ((let32 (ff.add let30 let1)))
  (let ((let33 (ff.mul let32 let18)))
  (let ((let34 (= let33 let31)))
  (let ((let35 (ff.mul let7 let7)))
  (let ((let36 (= let35 let7)))
  (let ((let37 (ff.mul let26 let26)))
  (let ((let38 (= let37 let26)))
  (let ((let39 (ff.mul let11 let11)))
  (let ((let40 (= let39 let11)))
  (let ((let41 (ff.mul let18 let18)))
  (let ((let42 (= let41 let18)))
  (let ((let43 (and let42 let40 let38 let36 let34 let28 let25 let21 let17 let14 let10 let6)))
  (let ((let44 out))
  (let ((let45 _10))
  (let ((let46 (ff.mul let45 let2)))
  (let ((let47 (ff.add let46 let1)))
  (let ((let48 (= let47 let44)))
  (let ((let49 _3))
  (let ((let50 _9))
  (let ((let51 (ff.mul let50 let49)))
  (let ((let52 (= let51 let45)))
  (let ((let53 _1))
  (let ((let54 _8))
  (let ((let55 (ff.mul let54 let53)))
  (let ((let56 (= let55 let50)))
  (let ((let57 _7))
  (let ((let58 (ff.mul let57 let49)))
  (let ((let59 (= let58 let54)))
  (let ((let60 _0))
  (let ((let61 _6))
  (let ((let62 (ff.mul let61 let60)))
  (let ((let63 (= let62 let57)))
  (let ((let64 _4))
  (let ((let65 _5))
  (let ((let66 (ff.mul let65 let64)))
  (let ((let67 (= let66 let61)))
  (let ((let68 _2))
  (let ((let69 (ff.mul let53 let68)))
  (let ((let70 (= let69 let65)))
  (let ((let71 (ff.mul let64 let2)))
  (let ((let72 (ff.mul let68 let2)))
  (let ((let73 (ff.add let60 let72 let71 let1)))
  (let ((let74 (ff.add let72 let1)))
  (let ((let75 (ff.mul let74 let60)))
  (let ((let76 (= let75 let73)))
  (let ((let77 (ff.mul let49 let49)))
  (let ((let78 (= let77 let49)))
  (let ((let79 (ff.mul let68 let68)))
  (let ((let80 (= let79 let68)))
  (let ((let81 (ff.mul let53 let53)))
  (let ((let82 (= let81 let53)))
  (let ((let83 (ff.mul let60 let60)))
  (let ((let84 (= let83 let60)))
  (let ((let85 (and let84 let82 let80 let78 let76 let70 let67 let63 let59 let56 let52 let48)))
  (let ((let86 (= let44 let0)))
  (let ((let87 (not let86)))
  (let ((let88 (= let53 let11)))
  (let ((let89 (= let68 let26)))
  (let ((let90 (= let60 let18)))
  (let ((let91 (= let49 let7)))
  (let ((let92 (and let91 let90 let89 let88)))
  (let ((let93 (and let92 let87 let85 let43)))
  let93
))))))))))))))))))))))))))))))))))))))))))))))))))))))))))))))))))))))))))))))))))))))))))))))
)
(check-sat)
